(set-info :source |printed by MathSAT|)
(declare-fun @nd_0_2 () Int)
(declare-fun .y.12 () Int)
(declare-fun main@%a1.i_0_1 () Int)
(declare-fun .y.13 () Int)
(declare-fun main@%i.0.i_0_1 () Int)
(declare-fun .y.14 () Int)
(declare-fun main@%shadow.mem.0_0_1 () (Array Int Int))
(declare-fun .y.15 () (Array Int Int))
(declare-fun main@%a2.i_0_1 () Int)
(declare-fun .y.16 () Int)
(declare-fun main@%shadow.mem1.0_0_1 () (Array Int Int))
(declare-fun .y.17 () (Array Int Int))
(declare-fun @nd_int_0_2 () Int)
(declare-fun .y.18 () Int)
(declare-fun .loc.10 () Bool)
(declare-fun .loc.19 () Bool)
(declare-fun .loc.11 () Bool)
(declare-fun .loc.20 () Bool)
(declare-fun main@%_16_0 () Int)
(declare-fun main@%_18_0 () Int)
(declare-fun main@%_14_0 () Int)
(define-fun .def_8 () Int (! @nd_0_2 :next |.y.12|))
(define-fun .def_10 () Int (! main@%a1.i_0_1 :next |.y.13|))
(define-fun .def_12 () Int (! main@%i.0.i_0_1 :next |.y.14|))
(define-fun .def_14 () (Array Int Int) (! main@%shadow.mem.0_0_1 :next |.y.15|))
(define-fun .def_16 () Int (! main@%a2.i_0_1 :next |.y.16|))
(define-fun .def_18 () (Array Int Int) (! main@%shadow.mem1.0_0_1 :next |.y.17|))
(define-fun .def_20 () Int (! @nd_int_0_2 :next |.y.18|))
(define-fun .def_22 () Bool (! .loc.10 :next |.loc.19|))
(define-fun .def_24 () Bool (! .loc.11 :next |.loc.20|))
(define-fun .def_28 () Int (! main@%_16_0 :next |.xtv.1|))
(define-fun .def_52 () Int (! main@%_18_0 :next |.xtv.2|))
(define-fun .def_53 () Int (! main@%_14_0 :next |.xtv.3|))
(define-fun .def_134 () Bool (not .def_24))
(define-fun .def_82 () Bool (not .def_22))
(define-fun .def_136 () Bool (! (and .def_82 .def_134) :init true))
(define-fun .def_130 () Bool (not .loc.19))
(define-fun .def_124 () Int (select .def_14 .def_28))
(define-fun .def_123 () Int (select .def_18 .def_52))
(define-fun .def_125 () Bool (= .def_123 .def_124))
(define-fun .def_126 () Bool (not .def_125))
(define-fun .def_118 () Bool (<= .def_52 0))
(define-fun .def_119 () Bool (not .def_118))
(define-fun .def_38 () Bool (<= .def_16 0))
(define-fun .def_120 () Bool (or .def_38 .def_119))
(define-fun .def_111 () Int (* (- 1) .def_52))
(define-fun .def_114 () Int (+ .def_111 .def_53))
(define-fun .def_115 () Int (+ .def_16 .def_114))
(define-fun .def_116 () Bool (= .def_115 0))
(define-fun .def_69 () Int (* (- 1) .def_28))
(define-fun .def_105 () Int (+ .def_69 .def_53))
(define-fun .def_106 () Int (+ .def_10 .def_105))
(define-fun .def_107 () Bool (= .def_106 0))
(define-fun .def_96 () Bool (<= 0 .def_53))
(define-fun .def_100 () Bool (not .def_96))
(define-fun .def_98 () Bool (<= 100 .def_53))
(define-fun .def_99 () Bool (not .def_98))
(define-fun .def_101 () Bool (or .def_99 .def_100))
(define-fun .def_33 () Bool (<= 100 .def_12))
(define-fun .def_97 () Bool (and .def_33 .def_96))
(define-fun .def_102 () Bool (and .def_97 .def_101))
(define-fun .def_108 () Bool (and .def_102 .def_107))
(define-fun .def_29 () Bool (<= .def_28 0))
(define-fun .def_30 () Bool (not .def_29))
(define-fun .def_27 () Bool (<= .def_10 0))
(define-fun .def_31 () Bool (or .def_27 .def_30))
(define-fun .def_109 () Bool (and .def_31 .def_108))
(define-fun .def_36 () Bool (not .def_27))
(define-fun .def_110 () Bool (and .def_36 .def_109))
(define-fun .def_117 () Bool (and .def_110 .def_116))
(define-fun .def_121 () Bool (and .def_117 .def_120))
(define-fun .def_39 () Bool (not .def_38))
(define-fun .def_122 () Bool (and .def_39 .def_121))
(define-fun .def_127 () Bool (and .def_122 .def_126))
(define-fun .def_128 () Bool (and .def_22 .def_127))
(define-fun .def_129 () Bool (and .loc.20 .def_128))
(define-fun .def_131 () Bool (and .def_129 .def_130))
(define-fun .def_94 () Bool (= .def_10 .y.18))
(define-fun .def_90 () Bool (<= .y.13 0))
(define-fun .def_91 () Bool (not .def_90))
(define-fun .def_87 () Bool (<= .y.16 0))
(define-fun .def_88 () Bool (not .def_87))
(define-fun .def_85 () Bool (= .y.14 0))
(define-fun .def_43 () Bool (not .loc.20))
(define-fun .def_83 () Bool (and .loc.19 .def_43))
(define-fun .def_84 () Bool (and .def_82 .def_83))
(define-fun .def_86 () Bool (and .def_84 .def_85))
(define-fun .def_89 () Bool (and .def_86 .def_88))
(define-fun .def_92 () Bool (and .def_89 .def_91))
(define-fun .def_45 () Bool (= .def_8 .y.12))
(define-fun .def_93 () Bool (and .def_45 .def_92))
(define-fun .def_95 () Bool (and .def_93 .def_94))
(define-fun .def_132 () Bool (or .def_95 .def_131))
(define-fun .def_80 () Bool (= .def_20 .y.18))
(define-fun .def_78 () Bool (= .def_16 .y.16))
(define-fun .def_76 () Bool (= .def_10 .y.13))
(define-fun .def_72 () Int (+ .def_12 .def_69))
(define-fun .def_73 () Int (+ .def_10 .def_72))
(define-fun .def_74 () Bool (= .def_73 0))
(define-fun .def_64 () Int (* (- 1) .def_53))
(define-fun .def_65 () Int (+ .def_16 .def_64))
(define-fun .def_66 () Int (+ .def_12 .def_65))
(define-fun .def_67 () Bool (= .def_66 0))
(define-fun .def_60 () Bool (<= .def_53 0))
(define-fun .def_61 () Bool (not .def_60))
(define-fun .def_62 () Bool (or .def_38 .def_61))
(define-fun .def_57 () (Array Int Int) (store .def_14 .def_28 .def_52))
(define-fun .def_58 () Bool (= .y.15 .def_57))
(define-fun .def_54 () (Array Int Int) (store .def_18 .def_53 .def_52))
(define-fun .def_55 () Bool (= .y.17 .def_54))
(define-fun .def_48 () Int (* (- 1) .y.14))
(define-fun .def_49 () Int (+ .def_12 .def_48))
(define-fun .def_50 () Bool (= .def_49 (- 1)))
(define-fun .def_34 () Bool (not .def_33))
(define-fun .def_35 () Bool (and .def_31 .def_34))
(define-fun .def_37 () Bool (and .def_35 .def_36))
(define-fun .def_40 () Bool (and .def_37 .def_39))
(define-fun .def_41 () Bool (and .def_22 .def_40))
(define-fun .def_42 () Bool (and .loc.19 .def_41))
(define-fun .def_44 () Bool (and .def_42 .def_43))
(define-fun .def_46 () Bool (and .def_44 .def_45))
(define-fun .def_51 () Bool (and .def_46 .def_50))
(define-fun .def_56 () Bool (and .def_51 .def_55))
(define-fun .def_59 () Bool (and .def_56 .def_58))
(define-fun .def_63 () Bool (and .def_59 .def_62))
(define-fun .def_68 () Bool (and .def_63 .def_67))
(define-fun .def_75 () Bool (and .def_68 .def_74))
(define-fun .def_77 () Bool (and .def_75 .def_76))
(define-fun .def_79 () Bool (and .def_77 .def_78))
(define-fun .def_81 () Bool (and .def_79 .def_80))
(define-fun .def_133 () Bool (or .def_81 .def_132))
(define-fun .def_135 () Bool (! (and .def_133 .def_134) :trans true))
(define-fun .def_137 () Bool (and .def_24 .def_82))
(define-fun .def_138 () Bool (! (not .def_137) :invar-property 0))
(assert true)
